(set-option :strings-exp true)
(declare-fun s () (Seq Int))
(assert (and (forall ((i Int)) (or (> 0 i) 
                                   (<= 0 (seq.nth (seq.update s 0 (seq.unit 0)) i)) 
                                   (>= i (seq.len (seq.update s 0 (seq.unit 0)))))) 
             (exists ((j Int)) (and (<= 0 j) 
                                    (< j (seq.len (seq.update s 0 (seq.unit 0))))
                                    (> 0 (seq.nth (seq.update s 0 (seq.unit 0)) j))))
        ))
(check-sat)
